Minimize
-1 l1718 + -1 l1721 + -1 l1719 + -1 l1723
 + -1 l1716 + -1 l1715 + -1 l1724 + -1 l1720
 + -1 l1722 + -1 l1717 + 1 u1718 + 1 u1721
 + 1 u1719 + 1 u1723 + 1 u1716 + 1 u1715
 + 1 u1724 + 1 u1720 + 1 u1722 + 1 u1717


Subject To
C0: 1 x1718 + -1 x1721 <= -9
C1: 1 x1718 + -1 x1719 <= -9
C2: 1 x1718 + -1 x1723 <= -9
C3: -1 x1721 + 1 x1724 <= -7
C4: -1 x1719 + 1 x1724 <= -7
C5: -1 x1723 + 1 x1716 <= -6
C6: -1 x1723 + 1 x1724 <= -7
C7: -1 x1723 + 1 x1722 <= -9
C8: -1 x1716 + 1 x1724 <= -7
C9: -1 x1716 + 1 x1722 <= -9
C10: -1 x1715 + 1 x1724 <= -7
C11: -1 x1715 + 1 x1722 <= -9
C12: -1 x1715 + 1 x1717 <= -6
C13: 1 x1724 + -1 x1720 <= -7
C14: -1 x1720 + 1 x1722 <= -9
C15: -1 x1720 + 1 x1717 <= -6
C16: 1 x1722 + -1 x1717 <= -9
C17: -1 x1718 + 1 l1718 <= 0
C18: -1 x1718 + 1 u1718 >= 0
C19: -1 x1721 + 1 l1721 <= 0
C20: -1 x1721 + 1 u1721 >= 0
C21: -1 x1719 + 1 l1719 <= 0
C22: -1 x1719 + 1 u1719 >= 0
C23: -1 x1723 + 1 l1723 <= 0
C24: -1 x1723 + 1 u1723 >= 0
C25: -1 x1716 + 1 l1716 <= 0
C26: -1 x1716 + 1 u1716 >= 0
C27: -1 x1715 + 1 l1715 <= 0
C28: -1 x1715 + 1 u1715 >= 0
C29: -1 x1724 + 1 l1724 <= 0
C30: -1 x1724 + 1 u1724 >= 0
C31: -1 x1720 + 1 l1720 <= 0
C32: -1 x1720 + 1 u1720 >= 0
C33: -1 x1722 + 1 l1722 <= 0
C34: -1 x1722 + 1 u1722 >= 0
C35: -1 x1717 + 1 l1717 <= 0
C36: -1 x1717 + 1 u1717 >= 0
Bounds
15 <= x1718 <= 16
34 <= x1721 <= 36
22 <= x1719 <= 37
23 <= x1723 <= 36
11 <= x1716 <= 37
24 <= x1715 <= 37
1 <= x1724 <= 18
30 <= x1720 <= 36
4 <= x1722 <= 8
17 <= x1717 <= 17
0 <= l1718 <= 15
0 <= l1721 <= 37
0 <= l1719 <= 32
0 <= l1723 <= 37
0 <= l1716 <= 38
0 <= l1715 <= 35
0 <= l1724 <= 5
0 <= l1720 <= 34
0 <= l1722 <= 6
0 <= l1717 <= 17
15 <= u1718 <= 43
37 <= u1721 <= 43
32 <= u1719 <= 43
37 <= u1723 <= 43
38 <= u1716 <= 43
35 <= u1715 <= 43
5 <= u1724 <= 43
34 <= u1720 <= 43
6 <= u1722 <= 43
17 <= u1717 <= 43
Generals
End
